12.5  0  17.3  15.5  0  0  0  0  0  17.3
7.1  13.3  0  13  12.2  0  0  18.4  0  0
0  0  14.3  0  8.9  17.8  0  0  8  0
12.7  0  18.8  0  0  0  15.9  0  0  0
0  8.1  0  16.4  19.8  0  0  5.1  0  0
0  5.2  5.4  0  12.1  15.3  0  0  16.1  0
0  18.6  0  16.4  0  0  9.3  0  0  10.8
15.5  0  6.4  0  0  0  0  0  0  6.3
0  9.1  0  17.1  19.7  0  0  18.4  0  0
0  0  15.5  0  0  17.3  15.6  0  0  17.3

4.6    3.1    4.4    3    3.1    3.1    4.5    3.3    3.6    4.9
